HUN,8,6,478
2,18,3,29,5,21,4,26,0,27,1,6
3,83,5,100,4,42,2,56,0,88,1,50
1,90,3,78,2,53,4,90,5,36,0,96
1,13,3,88,4,86,0,59,2,34,5,3
0,48,5,6,3,84,2,57,1,67,4,59
4,96,5,37,1,68,0,70,3,56,2,52
4,6,2,42,5,13,0,47,1,52,3,80
1,90,5,98,3,86,0,73,2,1,4,48
